min: 17263 v0 + 17263;

v0 >= 0;
v1 >= 0;
v2 >= 0;
v3 >= 0;
v4 >= 0;
v5 >= 0;
17263 v0 + 17263 = 20093 v1 + 20093;
17263 v0 + 17263 = 16697 v2 + 16697;
17263 v0 + 17263 = 20659 v3 + 20659;
17263 v0 + 17263 = 22357 v4 + 22357;
17263 v0 + 17263 = 14999 v5 + 14999;

int v0, v1, v2, v3, v4, v5;
